c n orig vars 70
p cnf 219 620
71 -1 0
71 -2 0
-71 1 2 0
72 -3 0
72 -4 0
-72 3 4 0
73 -5 0
73 -6 0
-73 5 6 0
74 -7 0
74 -8 0
-74 7 8 0
75 -9 0
75 -10 0
-75 9 10 0
76 -11 0
76 -12 0
-76 11 12 0
77 -13 0
77 -14 0
-77 13 14 0
78 -15 0
78 -16 0
-78 15 16 0
79 -17 0
79 -18 0
-79 17 18 0
80 -19 0
80 -20 0
-80 19 20 0
81 -21 0
81 -22 0
-81 21 22 0
82 -23 0
82 -24 0
-82 23 24 0
83 -25 0
83 -26 0
-83 25 26 0
84 -27 0
84 -28 0
-84 27 28 0
-85 71 0
-85 72 0
-85 73 0
-85 74 0
-85 75 0
-85 76 0
-85 77 0
-85 78 0
-85 79 0
-85 80 0
-85 81 0
-85 82 0
-85 83 0
-85 84 0
85 -71 -72 -73 -74 -75 -76 -77 -78 -79 -80 -81 -82 -83 -84 0
-85 0
86 -29 0
86 -36 0
86 -43 0
86 -50 0
86 -57 0
86 -64 0
-86 29 36 43 50 57 64 0
87 -30 0
87 -37 0
87 -44 0
87 -51 0
87 -58 0
87 -65 0
-87 30 37 44 51 58 65 0
88 -31 0
88 -38 0
88 -45 0
88 -52 0
88 -59 0
88 -66 0
-88 31 38 45 52 59 66 0
89 -32 0
89 -39 0
89 -46 0
89 -53 0
89 -60 0
89 -67 0
-89 32 39 46 53 60 67 0
90 -33 0
90 -40 0
90 -47 0
90 -54 0
90 -61 0
90 -68 0
-90 33 40 47 54 61 68 0
91 -34 0
91 -41 0
91 -48 0
91 -55 0
91 -62 0
91 -69 0
-91 34 41 48 55 62 69 0
92 -35 0
92 -42 0
92 -49 0
92 -56 0
92 -63 0
92 -70 0
-92 35 42 49 56 63 70 0
93 29 0
93 30 0
-93 -29 -30 0
94 29 0
94 31 0
-94 -29 -31 0
95 29 0
95 32 0
-95 -29 -32 0
96 29 0
96 33 0
-96 -29 -33 0
97 29 0
97 34 0
-97 -29 -34 0
98 29 0
98 35 0
-98 -29 -35 0
99 30 0
99 31 0
-99 -30 -31 0
100 30 0
100 32 0
-100 -30 -32 0
101 30 0
101 33 0
-101 -30 -33 0
102 30 0
102 34 0
-102 -30 -34 0
103 30 0
103 35 0
-103 -30 -35 0
104 31 0
104 32 0
-104 -31 -32 0
105 31 0
105 33 0
-105 -31 -33 0
106 31 0
106 34 0
-106 -31 -34 0
107 31 0
107 35 0
-107 -31 -35 0
108 32 0
108 33 0
-108 -32 -33 0
109 32 0
109 34 0
-109 -32 -34 0
110 32 0
110 35 0
-110 -32 -35 0
111 33 0
111 34 0
-111 -33 -34 0
112 33 0
112 35 0
-112 -33 -35 0
113 34 0
113 35 0
-113 -34 -35 0
114 36 0
114 37 0
-114 -36 -37 0
115 36 0
115 38 0
-115 -36 -38 0
116 36 0
116 39 0
-116 -36 -39 0
117 36 0
117 40 0
-117 -36 -40 0
118 36 0
118 41 0
-118 -36 -41 0
119 36 0
119 42 0
-119 -36 -42 0
120 37 0
120 38 0
-120 -37 -38 0
121 37 0
121 39 0
-121 -37 -39 0
122 37 0
122 40 0
-122 -37 -40 0
123 37 0
123 41 0
-123 -37 -41 0
124 37 0
124 42 0
-124 -37 -42 0
125 38 0
125 39 0
-125 -38 -39 0
126 38 0
126 40 0
-126 -38 -40 0
127 38 0
127 41 0
-127 -38 -41 0
128 38 0
128 42 0
-128 -38 -42 0
129 39 0
129 40 0
-129 -39 -40 0
130 39 0
130 41 0
-130 -39 -41 0
131 39 0
131 42 0
-131 -39 -42 0
132 40 0
132 41 0
-132 -40 -41 0
133 40 0
133 42 0
-133 -40 -42 0
134 41 0
134 42 0
-134 -41 -42 0
135 43 0
135 44 0
-135 -43 -44 0
136 43 0
136 45 0
-136 -43 -45 0
137 43 0
137 46 0
-137 -43 -46 0
138 43 0
138 47 0
-138 -43 -47 0
139 43 0
139 48 0
-139 -43 -48 0
140 43 0
140 49 0
-140 -43 -49 0
141 44 0
141 45 0
-141 -44 -45 0
142 44 0
142 46 0
-142 -44 -46 0
143 44 0
143 47 0
-143 -44 -47 0
144 44 0
144 48 0
-144 -44 -48 0
145 44 0
145 49 0
-145 -44 -49 0
146 45 0
146 46 0
-146 -45 -46 0
147 45 0
147 47 0
-147 -45 -47 0
148 45 0
148 48 0
-148 -45 -48 0
149 45 0
149 49 0
-149 -45 -49 0
150 46 0
150 47 0
-150 -46 -47 0
151 46 0
151 48 0
-151 -46 -48 0
152 46 0
152 49 0
-152 -46 -49 0
153 47 0
153 48 0
-153 -47 -48 0
154 47 0
154 49 0
-154 -47 -49 0
155 48 0
155 49 0
-155 -48 -49 0
156 50 0
156 51 0
-156 -50 -51 0
157 50 0
157 52 0
-157 -50 -52 0
158 50 0
158 53 0
-158 -50 -53 0
159 50 0
159 54 0
-159 -50 -54 0
160 50 0
160 55 0
-160 -50 -55 0
161 50 0
161 56 0
-161 -50 -56 0
162 51 0
162 52 0
-162 -51 -52 0
163 51 0
163 53 0
-163 -51 -53 0
164 51 0
164 54 0
-164 -51 -54 0
165 51 0
165 55 0
-165 -51 -55 0
166 51 0
166 56 0
-166 -51 -56 0
167 52 0
167 53 0
-167 -52 -53 0
168 52 0
168 54 0
-168 -52 -54 0
169 52 0
169 55 0
-169 -52 -55 0
170 52 0
170 56 0
-170 -52 -56 0
171 53 0
171 54 0
-171 -53 -54 0
172 53 0
172 55 0
-172 -53 -55 0
173 53 0
173 56 0
-173 -53 -56 0
174 54 0
174 55 0
-174 -54 -55 0
175 54 0
175 56 0
-175 -54 -56 0
176 55 0
176 56 0
-176 -55 -56 0
177 57 0
177 58 0
-177 -57 -58 0
178 57 0
178 59 0
-178 -57 -59 0
179 57 0
179 60 0
-179 -57 -60 0
180 57 0
180 61 0
-180 -57 -61 0
181 57 0
181 62 0
-181 -57 -62 0
182 57 0
182 63 0
-182 -57 -63 0
183 58 0
183 59 0
-183 -58 -59 0
184 58 0
184 60 0
-184 -58 -60 0
185 58 0
185 61 0
-185 -58 -61 0
186 58 0
186 62 0
-186 -58 -62 0
187 58 0
187 63 0
-187 -58 -63 0
188 59 0
188 60 0
-188 -59 -60 0
189 59 0
189 61 0
-189 -59 -61 0
190 59 0
190 62 0
-190 -59 -62 0
191 59 0
191 63 0
-191 -59 -63 0
192 60 0
192 61 0
-192 -60 -61 0
193 60 0
193 62 0
-193 -60 -62 0
194 60 0
194 63 0
-194 -60 -63 0
195 61 0
195 62 0
-195 -61 -62 0
196 61 0
196 63 0
-196 -61 -63 0
197 62 0
197 63 0
-197 -62 -63 0
198 64 0
198 65 0
-198 -64 -65 0
199 64 0
199 66 0
-199 -64 -66 0
200 64 0
200 67 0
-200 -64 -67 0
201 64 0
201 68 0
-201 -64 -68 0
202 64 0
202 69 0
-202 -64 -69 0
203 64 0
203 70 0
-203 -64 -70 0
204 65 0
204 66 0
-204 -65 -66 0
205 65 0
205 67 0
-205 -65 -67 0
206 65 0
206 68 0
-206 -65 -68 0
207 65 0
207 69 0
-207 -65 -69 0
208 65 0
208 70 0
-208 -65 -70 0
209 66 0
209 67 0
-209 -66 -67 0
210 66 0
210 68 0
-210 -66 -68 0
211 66 0
211 69 0
-211 -66 -69 0
212 66 0
212 70 0
-212 -66 -70 0
213 67 0
213 68 0
-213 -67 -68 0
214 67 0
214 69 0
-214 -67 -69 0
215 67 0
215 70 0
-215 -67 -70 0
216 68 0
216 69 0
-216 -68 -69 0
217 68 0
217 70 0
-217 -68 -70 0
218 69 0
218 70 0
-218 -69 -70 0
-219 86 0
-219 87 0
-219 88 0
-219 89 0
-219 90 0
-219 91 0
-219 92 0
-219 93 0
-219 94 0
-219 95 0
-219 96 0
-219 97 0
-219 98 0
-219 99 0
-219 100 0
-219 101 0
-219 102 0
-219 103 0
-219 104 0
-219 105 0
-219 106 0
-219 107 0
-219 108 0
-219 109 0
-219 110 0
-219 111 0
-219 112 0
-219 113 0
-219 114 0
-219 115 0
-219 116 0
-219 117 0
-219 118 0
-219 119 0
-219 120 0
-219 121 0
-219 122 0
-219 123 0
-219 124 0
-219 125 0
-219 126 0
-219 127 0
-219 128 0
-219 129 0
-219 130 0
-219 131 0
-219 132 0
-219 133 0
-219 134 0
-219 135 0
-219 136 0
-219 137 0
-219 138 0
-219 139 0
-219 140 0
-219 141 0
-219 142 0
-219 143 0
-219 144 0
-219 145 0
-219 146 0
-219 147 0
-219 148 0
-219 149 0
-219 150 0
-219 151 0
-219 152 0
-219 153 0
-219 154 0
-219 155 0
-219 156 0
-219 157 0
-219 158 0
-219 159 0
-219 160 0
-219 161 0
-219 162 0
-219 163 0
-219 164 0
-219 165 0
-219 166 0
-219 167 0
-219 168 0
-219 169 0
-219 170 0
-219 171 0
-219 172 0
-219 173 0
-219 174 0
-219 175 0
-219 176 0
-219 177 0
-219 178 0
-219 179 0
-219 180 0
-219 181 0
-219 182 0
-219 183 0
-219 184 0
-219 185 0
-219 186 0
-219 187 0
-219 188 0
-219 189 0
-219 190 0
-219 191 0
-219 192 0
-219 193 0
-219 194 0
-219 195 0
-219 196 0
-219 197 0
-219 198 0
-219 199 0
-219 200 0
-219 201 0
-219 202 0
-219 203 0
-219 204 0
-219 205 0
-219 206 0
-219 207 0
-219 208 0
-219 209 0
-219 210 0
-219 211 0
-219 212 0
-219 213 0
-219 214 0
-219 215 0
-219 216 0
-219 217 0
-219 218 0
219 -86 -87 -88 -89 -90 -91 -92 -93 -94 -95 -96 -97 -98 -99 -100 -101 -102 -103 -104 -105 -106 -107 -108 -109 -110 -111 -112 -113 -114 -115 -116 -117 -118 -119 -120 -121 -122 -123 -124 -125 -126 -127 -128 -129 -130 -131 -132 -133 -134 -135 -136 -137 -138 -139 -140 -141 -142 -143 -144 -145 -146 -147 -148 -149 -150 -151 -152 -153 -154 -155 -156 -157 -158 -159 -160 -161 -162 -163 -164 -165 -166 -167 -168 -169 -170 -171 -172 -173 -174 -175 -176 -177 -178 -179 -180 -181 -182 -183 -184 -185 -186 -187 -188 -189 -190 -191 -192 -193 -194 -195 -196 -197 -198 -199 -200 -201 -202 -203 -204 -205 -206 -207 -208 -209 -210 -211 -212 -213 -214 -215 -216 -217 -218 0
-219 0
